; TIMESTAMP SWAP2 DUP2 SWAP4 PUSH cw_1 SWAP2 => PUSH cw_1 DUP2 SWAP4 TIMESTAMP SWAP4
(set-option :produce-proofs true)
; 
(set-info :status unknown)
(declare-fun storage_t ((_ BitVec 256) (_ BitVec 256) (_ BitVec 256) (_ BitVec 256) (_ BitVec 256) Int (_ BitVec 256)) (_ BitVec 256))
(declare-fun w_1 () (_ BitVec 256))
(declare-fun storage_s ((_ BitVec 256) (_ BitVec 256) (_ BitVec 256) (_ BitVec 256) (_ BitVec 256) Int (_ BitVec 256)) (_ BitVec 256))
(declare-fun exc_halt_t (Int) Bool)
(declare-fun exc_halt_s (Int) Bool)
(declare-fun stack_t ((_ BitVec 256) (_ BitVec 256) (_ BitVec 256) (_ BitVec 256) (_ BitVec 256) Int (_ BitVec 6)) (_ BitVec 256))
(declare-fun stack_s ((_ BitVec 256) (_ BitVec 256) (_ BitVec 256) (_ BitVec 256) (_ BitVec 256) Int (_ BitVec 6)) (_ BitVec 256))
(declare-fun sc_t (Int) (_ BitVec 6))
(declare-fun sc_s (Int) (_ BitVec 6))
(declare-fun used_gas_t ((_ BitVec 256) (_ BitVec 256) (_ BitVec 256) (_ BitVec 256) (_ BitVec 256) Int) Int)
(declare-fun used_gas_s ((_ BitVec 256) (_ BitVec 256) (_ BitVec 256) (_ BitVec 256) (_ BitVec 256) Int) Int)
(assert
 (exists ((x_0 (_ BitVec 256)) (x_1 (_ BitVec 256)) (x_2 (_ BitVec 256)) (x_TIMESTAMP (_ BitVec 256)) )(let (($x10934 (forall ((w (_ BitVec 256)) )(let ((?x10927 (storage_t x_0 x_1 x_2 w_1 x_TIMESTAMP 5 w)))
 (let ((?x10943 (storage_s x_0 x_1 x_2 w_1 x_TIMESTAMP 6 w)))
 (= ?x10943 ?x10927))))
 ))
 (let (($x886 (exc_halt_t 5)))
 (let (($x772 (exc_halt_s 6)))
 (let (($x889 (= $x772 $x886)))
 (let (($x4595 (forall ((n (_ BitVec 6)) )(let ((?x10979 (stack_t x_0 x_1 x_2 w_1 x_TIMESTAMP 5 n)))
 (let ((?x11278 (stack_s x_0 x_1 x_2 w_1 x_TIMESTAMP 6 n)))
 (let (($x10950 (= ?x11278 ?x10979)))
 (let ((?x919 (sc_t 5)))
 (let (($x2999 (bvsle ?x919 n)))
 (or $x2999 $x10950)))))))
 ))
 (let ((?x919 (sc_t 5)))
 (let ((?x926 (sc_s 6)))
 (let (($x929 (= ?x926 ?x919)))
 (let ((?x10949 (used_gas_t x_0 x_1 x_2 w_1 x_TIMESTAMP 0)))
 (let ((?x1614 (used_gas_s x_0 x_1 x_2 w_1 x_TIMESTAMP 0)))
 (let (($x9859 (= ?x1614 ?x10949)))
 (let (($x9537 (forall ((w (_ BitVec 256)) )(let ((?x10980 (storage_t x_0 x_1 x_2 w_1 x_TIMESTAMP 0 w)))
 (let ((?x10958 (storage_s x_0 x_1 x_2 w_1 x_TIMESTAMP 0 w)))
 (= ?x10958 ?x10980))))
 ))
 (let (($x56 (exc_halt_t 0)))
 (let (($x57 (exc_halt_s 0)))
 (let (($x58 (= $x57 $x56)))
 (let (($x3952 (forall ((n (_ BitVec 6)) )(let ((?x11263 (stack_t x_0 x_1 x_2 w_1 x_TIMESTAMP 0 n)))
 (let ((?x11273 (stack_s x_0 x_1 x_2 w_1 x_TIMESTAMP 0 n)))
 (let (($x11261 (= ?x11273 ?x11263)))
 (let ((?x63 (sc_t 0)))
 (let (($x4577 (bvsle ?x63 n)))
 (or $x4577 $x11261)))))))
 ))
 (let ((?x63 (sc_t 0)))
 (let ((?x72 (sc_s 0)))
 (let (($x73 (= ?x72 ?x63)))
 (let (($x10014 (= $x886 (or (exc_halt_t 4) (not (bvsle (_ bv0 6) (bvadd (_ bv59 6) (sc_t 4))))))))
 (let (($x9886 (forall ((w (_ BitVec 256)) )(let ((?x11256 (storage_t x_0 x_1 x_2 w_1 x_TIMESTAMP 4 w)))
 (let ((?x10927 (storage_t x_0 x_1 x_2 w_1 x_TIMESTAMP 5 w)))
 (= ?x10927 ?x11256))))
 ))
 (let (($x4863 (forall ((n (_ BitVec 6)) )(let ((?x11269 (stack_t x_0 x_1 x_2 w_1 x_TIMESTAMP 4 n)))
 (let ((?x10979 (stack_t x_0 x_1 x_2 w_1 x_TIMESTAMP 5 n)))
 (or (bvsle (bvadd (_ bv59 6) (sc_t 4)) n) (= ?x10979 ?x11269)))))
 ))
 (let ((?x3757 (sc_t 4)))
 (let (($x3153 (= ?x919 ?x3757)))
 (let (($x9899 (= (used_gas_t x_0 x_1 x_2 w_1 x_TIMESTAMP 5) (+ 3 (used_gas_t x_0 x_1 x_2 w_1 x_TIMESTAMP 4)))))
 (let (($x9951 (= (stack_t x_0 x_1 x_2 w_1 x_TIMESTAMP 5 (bvadd (_ bv62 6) ?x919)) (stack_t x_0 x_1 x_2 w_1 x_TIMESTAMP 4 (bvadd (_ bv62 6) ?x3757)))))
 (let (($x9807 (= (stack_t x_0 x_1 x_2 w_1 x_TIMESTAMP 5 (bvadd (_ bv61 6) ?x919)) (stack_t x_0 x_1 x_2 w_1 x_TIMESTAMP 4 (bvadd (_ bv61 6) ?x3757)))))
 (let (($x4253 (= (stack_t x_0 x_1 x_2 w_1 x_TIMESTAMP 5 (bvadd (_ bv60 6) ?x919)) (stack_t x_0 x_1 x_2 w_1 x_TIMESTAMP 4 (bvadd (_ bv60 6) ?x3757)))))
 (let (($x8935 (= (stack_t x_0 x_1 x_2 w_1 x_TIMESTAMP 5 (bvadd (_ bv59 6) ?x919)) (stack_t x_0 x_1 x_2 w_1 x_TIMESTAMP 4 (bvadd (_ bv63 6) ?x3757)))))
 (let (($x4678 (= (stack_t x_0 x_1 x_2 w_1 x_TIMESTAMP 5 (bvadd (_ bv63 6) ?x919)) (stack_t x_0 x_1 x_2 w_1 x_TIMESTAMP 4 (bvadd (_ bv59 6) ?x3757)))))
 (let (($x10336 (exc_halt_t 3)))
 (let (($x2693 (or $x10336 (not (= ((_ extract 6 6) (bvadd (_ bv1 7) (concat (_ bv0 1) (sc_t 3)))) (_ bv0 1))))))
 (let (($x3723 (exc_halt_t 4)))
 (let (($x6522 (= $x3723 $x2693)))
 (let (($x5079 (forall ((w (_ BitVec 256)) )(let ((?x11202 (storage_t x_0 x_1 x_2 w_1 x_TIMESTAMP 3 w)))
 (let ((?x11256 (storage_t x_0 x_1 x_2 w_1 x_TIMESTAMP 4 w)))
 (= ?x11256 ?x11202))))
 ))
 (let (($x7914 (forall ((n (_ BitVec 6)) )(let ((?x11192 (stack_t x_0 x_1 x_2 w_1 x_TIMESTAMP 3 n)))
 (let ((?x11269 (stack_t x_0 x_1 x_2 w_1 x_TIMESTAMP 4 n)))
 (let ((?x2012 (sc_t 3)))
 (let (($x81 (bvsle ?x2012 n)))
 (or $x81 (= ?x11269 ?x11192)))))))
 ))
 (let (($x9314 (= ?x3757 (bvadd (_ bv1 6) (sc_t 3)))))
 (let ((?x826 (used_gas_t x_0 x_1 x_2 w_1 x_TIMESTAMP 4)))
 (let (($x2223 (= $x10336 (or (exc_halt_t 2) (not (bvsle (_ bv0 6) (bvadd (_ bv59 6) (sc_t 2))))))))
 (let (($x118 (forall ((w (_ BitVec 256)) )(let ((?x3134 (storage_t x_0 x_1 x_2 w_1 x_TIMESTAMP 2 w)))
 (let ((?x11202 (storage_t x_0 x_1 x_2 w_1 x_TIMESTAMP 3 w)))
 (= ?x11202 ?x3134))))
 ))
 (let (($x9686 (forall ((n (_ BitVec 6)) )(let ((?x11175 (stack_t x_0 x_1 x_2 w_1 x_TIMESTAMP 2 n)))
 (let ((?x11192 (stack_t x_0 x_1 x_2 w_1 x_TIMESTAMP 3 n)))
 (or (bvsle (bvadd (_ bv59 6) (sc_t 2)) n) (= ?x11192 ?x11175)))))
 ))
 (let ((?x4056 (sc_t 2)))
 (let ((?x2012 (sc_t 3)))
 (let (($x2424 (= ?x2012 ?x4056)))
 (let ((?x866 (used_gas_t x_0 x_1 x_2 w_1 x_TIMESTAMP 3)))
 (let (($x6306 (= (stack_t x_0 x_1 x_2 w_1 x_TIMESTAMP 3 (bvadd (_ bv62 6) ?x2012)) (stack_t x_0 x_1 x_2 w_1 x_TIMESTAMP 2 (bvadd (_ bv62 6) ?x4056)))))
 (let (($x679 (= (stack_t x_0 x_1 x_2 w_1 x_TIMESTAMP 3 (bvadd (_ bv61 6) ?x2012)) (stack_t x_0 x_1 x_2 w_1 x_TIMESTAMP 2 (bvadd (_ bv61 6) ?x4056)))))
 (let (($x7316 (= (stack_t x_0 x_1 x_2 w_1 x_TIMESTAMP 3 (bvadd (_ bv60 6) ?x2012)) (stack_t x_0 x_1 x_2 w_1 x_TIMESTAMP 2 (bvadd (_ bv60 6) ?x4056)))))
 (let ((?x1385 (bvadd (_ bv63 6) ?x4056)))
 (let ((?x4024 (stack_t x_0 x_1 x_2 w_1 x_TIMESTAMP 2 ?x1385)))
 (let (($x9618 (= (stack_t x_0 x_1 x_2 w_1 x_TIMESTAMP 3 (bvadd (_ bv63 6) ?x2012)) (stack_t x_0 x_1 x_2 w_1 x_TIMESTAMP 2 (bvadd (_ bv59 6) ?x4056)))))
 (let (($x5064 (not (= ((_ extract 6 6) (bvadd (_ bv1 7) (concat (_ bv0 1) (sc_t 1)))) (_ bv0 1)))))
 (let (($x1920 (exc_halt_t 1)))
 (let (($x903 (exc_halt_t 2)))
 (let (($x1684 (= $x903 (or (not (bvsle (_ bv0 6) (bvadd (_ bv62 6) (sc_t 1)))) $x1920 $x5064))))
 (let (($x5044 (forall ((w (_ BitVec 256)) )(let ((?x4037 (storage_t x_0 x_1 x_2 w_1 x_TIMESTAMP 1 w)))
 (let ((?x3134 (storage_t x_0 x_1 x_2 w_1 x_TIMESTAMP 2 w)))
 (= ?x3134 ?x4037))))
 ))
 (let (($x10526 (forall ((n (_ BitVec 6)) )(let ((?x4023 (sc_t 1)))
 (let ((?x8761 (bvadd (_ bv62 6) ?x4023)))
 (let (($x9492 (bvsle ?x8761 n)))
 (let ((?x4266 (stack_t x_0 x_1 x_2 w_1 x_TIMESTAMP 1 n)))
 (let ((?x11175 (stack_t x_0 x_1 x_2 w_1 x_TIMESTAMP 2 n)))
 (or (= ?x11175 ?x4266) $x9492)))))))
 ))
 (let (($x8778 (= ?x4056 (bvadd (_ bv1 6) (sc_t 1)))))
 (let ((?x11167 (used_gas_t x_0 x_1 x_2 w_1 x_TIMESTAMP 2)))
 (let (($x3888 (= (stack_t x_0 x_1 x_2 w_1 x_TIMESTAMP 2 (bvadd (_ bv63 6) (sc_t 1))) (stack_t x_0 x_1 x_2 w_1 x_TIMESTAMP 1 (bvadd (_ bv63 6) (sc_t 1))))))
 (let ((?x4023 (sc_t 1)))
 (let ((?x8761 (bvadd (_ bv62 6) ?x4023)))
 (let ((?x4019 (stack_t x_0 x_1 x_2 w_1 x_TIMESTAMP 1 ?x8761)))
 (let (($x2260 (= $x1920 (or $x56 (not (= ((_ extract 6 6) (bvadd (_ bv1 7) (concat (_ bv0 1) ?x63))) (_ bv0 1)))))))
 (let (($x23 (forall ((w (_ BitVec 256)) )(let ((?x10980 (storage_t x_0 x_1 x_2 w_1 x_TIMESTAMP 0 w)))
 (let ((?x4037 (storage_t x_0 x_1 x_2 w_1 x_TIMESTAMP 1 w)))
 (= ?x4037 ?x10980))))
 ))
 (let (($x3762 (forall ((n (_ BitVec 6)) )(let ((?x63 (sc_t 0)))
 (let (($x4577 (bvsle ?x63 n)))
 (let ((?x11263 (stack_t x_0 x_1 x_2 w_1 x_TIMESTAMP 0 n)))
 (let ((?x4266 (stack_t x_0 x_1 x_2 w_1 x_TIMESTAMP 1 n)))
 (or (= ?x4266 ?x11263) $x4577))))))
 ))
 (let (($x245 (= ?x4023 (bvadd (_ bv1 6) ?x63))))
 (let (($x3893 (= $x772 (or (exc_halt_s 5) (not (bvsle (_ bv0 6) (bvadd (_ bv61 6) (sc_s 5))))))))
 (let (($x4390 (forall ((w (_ BitVec 256)) )(let ((?x4812 (storage_s x_0 x_1 x_2 w_1 x_TIMESTAMP 5 w)))
 (let ((?x10943 (storage_s x_0 x_1 x_2 w_1 x_TIMESTAMP 6 w)))
 (= ?x10943 ?x4812))))
 ))
 (let (($x4529 (forall ((n (_ BitVec 6)) )(let ((?x6390 (stack_s x_0 x_1 x_2 w_1 x_TIMESTAMP 5 n)))
 (let ((?x11278 (stack_s x_0 x_1 x_2 w_1 x_TIMESTAMP 6 n)))
 (or (bvsle (bvadd (_ bv61 6) (sc_s 5)) n) (= ?x11278 ?x6390)))))
 ))
 (let ((?x805 (sc_s 5)))
 (let (($x8462 (= ?x926 ?x805)))
 (let (($x9863 (= (used_gas_s x_0 x_1 x_2 w_1 x_TIMESTAMP 6) (+ 3 (used_gas_s x_0 x_1 x_2 w_1 x_TIMESTAMP 5)))))
 (let (($x10000 (= (stack_s x_0 x_1 x_2 w_1 x_TIMESTAMP 6 (bvadd (_ bv62 6) ?x926)) (stack_s x_0 x_1 x_2 w_1 x_TIMESTAMP 5 (bvadd (_ bv62 6) ?x805)))))
 (let (($x4272 (= (stack_s x_0 x_1 x_2 w_1 x_TIMESTAMP 6 (bvadd (_ bv61 6) ?x926)) (stack_s x_0 x_1 x_2 w_1 x_TIMESTAMP 5 (bvadd (_ bv63 6) ?x805)))))
 (let (($x4214 (= (stack_s x_0 x_1 x_2 w_1 x_TIMESTAMP 6 (bvadd (_ bv63 6) ?x926)) (stack_s x_0 x_1 x_2 w_1 x_TIMESTAMP 5 (bvadd (_ bv61 6) ?x805)))))
 (let (($x504 (not (= ((_ extract 6 6) (bvadd (_ bv1 7) (concat (_ bv0 1) (sc_s 4)))) (_ bv0 1)))))
 (let (($x64 (exc_halt_s 4)))
 (let (($x3979 (exc_halt_s 5)))
 (let (($x9358 (forall ((w (_ BitVec 256)) )(let ((?x4533 (storage_s x_0 x_1 x_2 w_1 x_TIMESTAMP 4 w)))
 (let ((?x4812 (storage_s x_0 x_1 x_2 w_1 x_TIMESTAMP 5 w)))
 (= ?x4812 ?x4533))))
 ))
 (let (($x8163 (forall ((n (_ BitVec 6)) )(let ((?x2508 (stack_s x_0 x_1 x_2 w_1 x_TIMESTAMP 4 n)))
 (let ((?x6390 (stack_s x_0 x_1 x_2 w_1 x_TIMESTAMP 5 n)))
 (or (bvsle (sc_s 4) n) (= ?x6390 ?x2508)))))
 ))
 (let (($x1347 (= ?x805 (bvadd (_ bv1 6) (sc_s 4)))))
 (let ((?x9527 (used_gas_s x_0 x_1 x_2 w_1 x_TIMESTAMP 5)))
 (let (($x5816 (= $x64 (or (exc_halt_s 3) (not (bvsle (_ bv0 6) (bvadd (_ bv59 6) (sc_s 3))))))))
 (let (($x2804 (forall ((w (_ BitVec 256)) )(let ((?x1162 (storage_s x_0 x_1 x_2 w_1 x_TIMESTAMP 3 w)))
 (let ((?x4533 (storage_s x_0 x_1 x_2 w_1 x_TIMESTAMP 4 w)))
 (= ?x4533 ?x1162))))
 ))
 (let (($x4289 (forall ((n (_ BitVec 6)) )(let ((?x628 (stack_s x_0 x_1 x_2 w_1 x_TIMESTAMP 3 n)))
 (let ((?x2508 (stack_s x_0 x_1 x_2 w_1 x_TIMESTAMP 4 n)))
 (or (bvsle (bvadd (_ bv59 6) (sc_s 3)) n) (= ?x2508 ?x628)))))
 ))
 (let ((?x275 (sc_s 3)))
 (let ((?x4305 (sc_s 4)))
 (let (($x180 (= ?x4305 ?x275)))
 (let ((?x5015 (used_gas_s x_0 x_1 x_2 w_1 x_TIMESTAMP 4)))
 (let (($x3997 (= (stack_s x_0 x_1 x_2 w_1 x_TIMESTAMP 4 (bvadd (_ bv62 6) ?x4305)) (stack_s x_0 x_1 x_2 w_1 x_TIMESTAMP 3 (bvadd (_ bv62 6) ?x275)))))
 (let (($x6166 (= (stack_s x_0 x_1 x_2 w_1 x_TIMESTAMP 4 (bvadd (_ bv61 6) ?x4305)) (stack_s x_0 x_1 x_2 w_1 x_TIMESTAMP 3 (bvadd (_ bv61 6) ?x275)))))
 (let (($x4027 (= (stack_s x_0 x_1 x_2 w_1 x_TIMESTAMP 4 (bvadd (_ bv60 6) ?x4305)) (stack_s x_0 x_1 x_2 w_1 x_TIMESTAMP 3 (bvadd (_ bv60 6) ?x275)))))
 (let ((?x403 (bvadd (_ bv63 6) ?x275)))
 (let ((?x751 (stack_s x_0 x_1 x_2 w_1 x_TIMESTAMP 3 ?x403)))
 (let (($x7358 (= (stack_s x_0 x_1 x_2 w_1 x_TIMESTAMP 4 (bvadd (_ bv63 6) ?x4305)) (stack_s x_0 x_1 x_2 w_1 x_TIMESTAMP 3 (bvadd (_ bv59 6) ?x275)))))
 (let (($x5993 (not (bvsle (_ bv0 6) (bvadd (_ bv62 6) (sc_s 2))))))
 (let (($x608 (not (= ((_ extract 6 6) (bvadd (_ bv1 7) (concat (_ bv0 1) (sc_s 2)))) (_ bv0 1)))))
 (let (($x247 (exc_halt_s 2)))
 (let (($x292 (exc_halt_s 3)))
 (let (($x3557 (= $x292 (or $x247 $x608 $x5993))))
 (let (($x3482 (forall ((w (_ BitVec 256)) )(let ((?x4692 (storage_s x_0 x_1 x_2 w_1 x_TIMESTAMP 2 w)))
 (let ((?x1162 (storage_s x_0 x_1 x_2 w_1 x_TIMESTAMP 3 w)))
 (= ?x1162 ?x4692))))
 ))
 (let (($x7443 (forall ((n (_ BitVec 6)) )(let ((?x2646 (stack_s x_0 x_1 x_2 w_1 x_TIMESTAMP 2 n)))
 (let ((?x628 (stack_s x_0 x_1 x_2 w_1 x_TIMESTAMP 3 n)))
 (let ((?x218 (sc_s 2)))
 (let ((?x5449 (bvadd (_ bv62 6) ?x218)))
 (let (($x2114 (bvsle ?x5449 n)))
 (or $x2114 (= ?x628 ?x2646))))))))
 ))
 (let (($x5948 (= ?x275 (bvadd (_ bv1 6) (sc_s 2)))))
 (let ((?x4421 (used_gas_s x_0 x_1 x_2 w_1 x_TIMESTAMP 3)))
 (let ((?x218 (sc_s 2)))
 (let ((?x712 (bvadd (_ bv63 6) ?x218)))
 (let ((?x8439 (stack_s x_0 x_1 x_2 w_1 x_TIMESTAMP 2 ?x712)))
 (let ((?x5449 (bvadd (_ bv62 6) ?x218)))
 (let ((?x3972 (stack_s x_0 x_1 x_2 w_1 x_TIMESTAMP 2 ?x5449)))
 (let (($x3966 (= $x247 (or (exc_halt_s 1) (not (bvsle (_ bv0 6) (bvadd (_ bv61 6) (sc_s 1))))))))
 (let (($x1876 (forall ((w (_ BitVec 256)) )(let ((?x4259 (storage_s x_0 x_1 x_2 w_1 x_TIMESTAMP 1 w)))
 (let ((?x4692 (storage_s x_0 x_1 x_2 w_1 x_TIMESTAMP 2 w)))
 (= ?x4692 ?x4259))))
 ))
 (let (($x7210 (forall ((n (_ BitVec 6)) )(let ((?x3171 (stack_s x_0 x_1 x_2 w_1 x_TIMESTAMP 1 n)))
 (let ((?x2646 (stack_s x_0 x_1 x_2 w_1 x_TIMESTAMP 2 n)))
 (or (bvsle (bvadd (_ bv61 6) (sc_s 1)) n) (= ?x2646 ?x3171)))))
 ))
 (let ((?x154 (sc_s 1)))
 (let (($x2636 (= ?x218 ?x154)))
 (let ((?x915 (used_gas_s x_0 x_1 x_2 w_1 x_TIMESTAMP 2)))
 (let (($x3911 (= (stack_s x_0 x_1 x_2 w_1 x_TIMESTAMP 2 (bvadd (_ bv61 6) ?x218)) (stack_s x_0 x_1 x_2 w_1 x_TIMESTAMP 1 (bvadd (_ bv63 6) ?x154)))))
 (let (($x189 (exc_halt_s 1)))
 (let (($x4891 (= $x189 (or $x57 (not (= ((_ extract 6 6) (bvadd (_ bv1 7) (concat (_ bv0 1) ?x72))) (_ bv0 1)))))))
 (let (($x10953 (forall ((w (_ BitVec 256)) )(let ((?x10958 (storage_s x_0 x_1 x_2 w_1 x_TIMESTAMP 0 w)))
 (let ((?x4259 (storage_s x_0 x_1 x_2 w_1 x_TIMESTAMP 1 w)))
 (= ?x4259 ?x10958))))
 ))
 (let (($x2116 (forall ((n (_ BitVec 6)) )(let ((?x72 (sc_s 0)))
 (let (($x7832 (bvsle ?x72 n)))
 (let ((?x11273 (stack_s x_0 x_1 x_2 w_1 x_TIMESTAMP 0 n)))
 (let ((?x3171 (stack_s x_0 x_1 x_2 w_1 x_TIMESTAMP 1 n)))
 (or (= ?x3171 ?x11273) $x7832))))))
 ))
 (let (($x3745 (= ?x154 (bvadd (_ bv1 6) ?x72))))
 (let (($x6347 (forall ((w (_ BitVec 256)) )(let ((?x10958 (storage_s x_0 x_1 x_2 w_1 x_TIMESTAMP 0 w)))
 (= ?x10958 (_ bv0 256))))
 ))
 (let (($x4711 (= ?x1614 0)))
 (let (($x5252 (not $x57)))
 (let (($x7332 (= (stack_s x_0 x_1 x_2 w_1 x_TIMESTAMP 0 (_ bv2 6)) x_2)))
 (let (($x996 (= (stack_s x_0 x_1 x_2 w_1 x_TIMESTAMP 0 (_ bv1 6)) x_1)))
 (let (($x8410 (= (stack_s x_0 x_1 x_2 w_1 x_TIMESTAMP 0 (_ bv0 6)) x_0)))
 (let (($x4364 (= ?x72 (_ bv3 6))))
 (and $x4364 $x8410 $x996 $x7332 $x5252 $x4711 $x6347 (= (stack_s x_0 x_1 x_2 w_1 x_TIMESTAMP 1 ?x72) x_TIMESTAMP) (= (used_gas_s x_0 x_1 x_2 w_1 x_TIMESTAMP 1) (+ 2 ?x1614)) $x3745 $x2116 $x10953 $x4891 (= ?x8439 (stack_s x_0 x_1 x_2 w_1 x_TIMESTAMP 1 (bvadd (_ bv61 6) ?x154))) $x3911 (= ?x3972 (stack_s x_0 x_1 x_2 w_1 x_TIMESTAMP 1 (bvadd (_ bv62 6) ?x154))) (= ?x915 (+ 3 (used_gas_s x_0 x_1 x_2 w_1 x_TIMESTAMP 1))) $x2636 $x7210 $x1876 $x3966 (= ?x751 ?x3972) (= (stack_s x_0 x_1 x_2 w_1 x_TIMESTAMP 3 ?x5449) ?x3972) (= (stack_s x_0 x_1 x_2 w_1 x_TIMESTAMP 3 ?x712) ?x8439) (= ?x4421 (+ 3 ?x915)) $x5948 $x7443 $x3482 $x3557 $x7358 (= (stack_s x_0 x_1 x_2 w_1 x_TIMESTAMP 4 (bvadd (_ bv59 6) ?x4305)) ?x751) $x4027 $x6166 $x3997 (= ?x5015 (+ 3 ?x4421)) $x180 $x4289 $x2804 $x5816 (= (stack_s x_0 x_1 x_2 w_1 x_TIMESTAMP 5 ?x4305) w_1) (= ?x9527 (+ 3 ?x5015)) $x1347 $x8163 $x9358 (= $x3979 (or $x64 $x504)) $x4214 $x4272 $x10000 $x9863 $x8462 $x4529 $x4390 $x3893 (= (stack_t x_0 x_1 x_2 w_1 x_TIMESTAMP 1 ?x63) w_1) (= (used_gas_t x_0 x_1 x_2 w_1 x_TIMESTAMP 1) (+ 3 ?x10949)) $x245 $x3762 $x23 $x2260 (= ?x4024 ?x4019) (= (stack_t x_0 x_1 x_2 w_1 x_TIMESTAMP 2 ?x8761) ?x4019) $x3888 (= ?x11167 (+ 3 (used_gas_t x_0 x_1 x_2 w_1 x_TIMESTAMP 1))) $x8778 $x10526 $x5044 $x1684 $x9618 (= (stack_t x_0 x_1 x_2 w_1 x_TIMESTAMP 3 (bvadd (_ bv59 6) ?x2012)) ?x4024) $x7316 $x679 $x6306 (= ?x866 (+ 3 ?x11167)) $x2424 $x9686 $x118 $x2223 (= (stack_t x_0 x_1 x_2 w_1 x_TIMESTAMP 4 ?x2012) x_TIMESTAMP) (= ?x826 (+ 2 ?x866)) $x9314 $x7914 $x5079 $x6522 $x4678 $x8935 $x4253 $x9807 $x9951 $x9899 $x3153 $x4863 $x9886 $x10014 $x73 $x3952 $x58 $x9537 $x9859 (not (and $x929 $x4595 $x889 $x10934)))))))))))))))))))))))))))))))))))))))))))))))))))))))))))))))))))))))))))))))))))))))))))))))))))))))))))))))))))))))))))))))))))))
 )
(check-sat)
(get-proof)
